p edge 50 300
e 1 12
e 1 20
e 1 26
e 1 39
e 1 41
e 1 49
e 2 15
e 2 28
e 2 28
e 2 30
e 2 43
e 2 46
e 3 5
e 3 24
e 3 38
e 3 44
e 3 50
e 3 50
e 4 3
e 4 16
e 4 18
e 4 20
e 4 23
e 4 31
e 5 11
e 5 14
e 5 18
e 5 31
e 5 42
e 5 47
e 6 3
e 6 12
e 6 14
e 6 33
e 6 37
e 6 47
e 7 3
e 7 8
e 7 18
e 7 24
e 7 28
e 7 48
e 8 7
e 8 7
e 8 11
e 8 15
e 8 16
e 8 29
e 9 17
e 9 26
e 9 41
e 9 45
e 9 46
e 9 50
e 10 6
e 10 11
e 10 17
e 10 24
e 10 37
e 10 49
e 11 7
e 11 13
e 11 17
e 11 18
e 11 22
e 11 44
e 12 11
e 12 18
e 12 19
e 12 37
e 12 41
e 12 44
e 13 5
e 13 8
e 13 21
e 13 38
e 13 46
e 13 50
e 14 13
e 14 34
e 14 35
e 14 36
e 14 50
e 14 50
e 15 2
e 15 4
e 15 11
e 15 18
e 15 24
e 15 38
e 16 2
e 16 6
e 16 11
e 16 20
e 16 32
e 16 47
e 17 9
e 17 16
e 17 19
e 17 19
e 17 49
e 17 50
e 18 10
e 18 28
e 18 28
e 18 33
e 18 39
e 18 47
e 19 12
e 19 13
e 19 33
e 19 34
e 19 36
e 19 48
e 20 5
e 20 11
e 20 24
e 20 35
e 20 40
e 20 43
e 21 6
e 21 7
e 21 23
e 21 25
e 21 39
e 21 42
e 22 1
e 22 11
e 22 26
e 22 32
e 22 32
e 22 33
e 23 6
e 23 19
e 23 31
e 23 38
e 23 41
e 23 42
e 24 21
e 24 23
e 24 23
e 24 30
e 24 38
e 24 42
e 25 7
e 25 10
e 25 10
e 25 17
e 25 17
e 25 49
e 26 6
e 26 17
e 26 37
e 26 41
e 26 46
e 26 50
e 27 3
e 27 22
e 27 32
e 27 32
e 27 35
e 27 49
e 28 18
e 28 21
e 28 24
e 28 29
e 28 32
e 28 42
e 29 15
e 29 17
e 29 23
e 29 40
e 29 43
e 29 50
e 30 7
e 30 22
e 30 35
e 30 40
e 30 46
e 30 50
e 31 2
e 31 2
e 31 12
e 31 14
e 31 15
e 31 41
e 32 17
e 32 25
e 32 29
e 32 30
e 32 39
e 32 47
e 33 4
e 33 14
e 33 20
e 33 42
e 33 45
e 33 48
e 34 1
e 34 9
e 34 15
e 34 20
e 34 29
e 34 36
e 35 1
e 35 2
e 35 16
e 35 20
e 35 42
e 35 50
e 36 8
e 36 8
e 36 11
e 36 24
e 36 27
e 36 31
e 37 1
e 37 7
e 37 20
e 37 36
e 37 42
e 37 50
e 38 5
e 38 8
e 38 8
e 38 42
e 38 49
e 38 49
e 39 2
e 39 2
e 39 5
e 39 20
e 39 27
e 39 41
e 40 3
e 40 4
e 40 22
e 40 23
e 40 27
e 40 44
e 41 2
e 41 13
e 41 16
e 41 20
e 41 23
e 41 26
e 42 9
e 42 17
e 42 20
e 42 24
e 42 44
e 42 49
e 43 19
e 43 23
e 43 24
e 43 33
e 43 37
e 43 44
e 44 2
e 44 10
e 44 24
e 44 38
e 44 42
e 44 43
e 45 1
e 45 25
e 45 26
e 45 46
e 45 50
e 45 50
e 46 13
e 46 15
e 46 19
e 46 36
e 46 40
e 46 40
e 47 2
e 47 10
e 47 11
e 47 27
e 47 40
e 47 44
e 48 2
e 48 3
e 48 30
e 48 35
e 48 42
e 48 47
e 49 15
e 49 22
e 49 28
e 49 28
e 49 46
e 49 47
e 50 6
e 50 8
e 50 21
e 50 21
e 50 22
e 50 48
